
Starting CP-SAT solver v9.15.6755
Parameters: random_seed: 2026072758 max_time_in_seconds: 2500 log_search_progress: true cp_model_presolve: true linearization_level: 2 num_search_workers: 4 cp_model_probing_level: 2 symmetry_level: 2

Initial satisfaction model '': (model_fingerprint: 0x83d255fbe6b78001)
#Variables: 724 (608 primary variables)
  - 724 Booleans in [0,1]
#kBoolAnd: 110 (#enforced: 110) (#literals: 330)
#kBoolOr: 110 (#enforced: 110) (#literals: 220)
#kExactlyOne: 87 (#literals: 261)
#kLinear1: 32 (#enforced: 6)
#kLinear2: 336 (#enforced: 336) (#complex_domain: 110)
#kLinear3: 1'600 (#enforced: 6)
#kLinearN: 1'132 (#enforced: 243) (#terms: 9'111)

Starting presolve at 0.00s
  4.65e-04s  0.00e+00d  [DetectDominanceRelations] 
  5.89e-03s  0.00e+00d  [PresolveToFixPoint] #num_loops=3 #num_dual_strengthening=1 
  2.55e-05s  0.00e+00d  [ExtractEncodingFromLinear] #potential_supersets=82 
  2.31e-04s  0.00e+00d  [DetectDuplicateColumns] 
  7.18e-05s  0.00e+00d  [DetectDuplicateConstraints] #duplicates=5 
[Symmetry] Graph for symmetry has 4'869 nodes and 15'728 arcs.
[Symmetry] Symmetry computation done. time: 0.000887425 dtime: 0.00181305
[SAT presolve] num removable Booleans: 220 / 626
[SAT presolve] num trivial clauses: 0
[SAT presolve] [0s] clauses:2'734 literals:7'430 vars:506 one_side_vars:66 simple_definition:1 singleton_clauses:0
[SAT presolve] [0.000196792s] clauses:2'733 literals:7'423 vars:506 one_side_vars:66 simple_definition:1 singleton_clauses:0
[SAT presolve] [0.000532338s] clauses:2'254 literals:6'619 vars:380 one_side_vars:73 simple_definition:65 singleton_clauses:0
  9.17e-05s  0.00e+00d  [DetectDuplicateConstraintsWithDifferentEnforcements] #without_enforcements=2 
  3.94e-03s  2.28e-03d  [Probe] #probed=1'316 #equiv=2 #new_binary_clauses=1'423 
  3.72e-04s  5.06e-04d  [MaxClique] Merged 589 constraints with 1'292 literals into 487 constraints with 1'145 literals
  5.69e-04s  0.00e+00d  [DetectDominanceRelations] 
  2.19e-03s  0.00e+00d  [PresolveToFixPoint] #num_loops=1 #num_dual_strengthening=1 
  9.70e-04s  0.00e+00d  [ProcessAtMostOneAndLinear] 
  7.84e-05s  0.00e+00d  [DetectDuplicateConstraints] 
  5.55e-05s  0.00e+00d  [DetectDuplicateConstraintsWithDifferentEnforcements] 
  4.43e-03s  1.56e-04d  [DetectDominatedLinearConstraints] #relevant_constraints=848 #num_inclusions=740 #num_redundant=7 
  1.00e-04s  0.00e+00d  [DetectDifferentVariables] 
  5.67e-04s  8.76e-05d  [ProcessSetPPC] #relevant_constraints=3'056 #num_inclusions=99 
  2.18e-04s  3.35e-05d  [TransformClausesToExactlyOne] #num_amos=550 #num_clauses=1'671 #num_checked=1'671 
  3.56e-05s  0.00e+00d  [DetectEncodedComplexDomains] 
  2.00e-05s  0.00e+00d  [FindAlmostIdenticalLinearConstraints] 
  7.33e-04s  1.51e-03d  [FindBigAtMostOneAndLinearOverlap] 
  1.05e-03s  1.01e-03d  [FindBigVerticalLinearOverlap] #blocks=8 #saved_nz=326 
  1.22e-04s  2.82e-04d  [FindBigHorizontalLinearOverlap] #linears=481 
  2.18e-04s  2.70e-05d  [MergeClauses] #num_collisions=22 #num_merges=22 #num_saved_literals=110 
  5.73e-04s  0.00e+00d  [DetectDominanceRelations] 
  2.15e-03s  0.00e+00d  [PresolveToFixPoint] #num_loops=2 #num_dual_strengthening=1 
  5.68e-04s  0.00e+00d  [DetectDominanceRelations] 
  2.09e-03s  0.00e+00d  [PresolveToFixPoint] #num_loops=1 #num_dual_strengthening=1 
  1.70e-04s  0.00e+00d  [DetectDuplicateColumns] 
  6.06e-05s  0.00e+00d  [DetectDuplicateConstraints] 
[Symmetry] Graph for symmetry has 4'400 nodes and 13'829 arcs.
[Symmetry] Symmetry computation done. time: 0.000721129 dtime: 0.00133843
[SAT presolve] num removable Booleans: 93 / 497
[SAT presolve] num trivial clauses: 0
[SAT presolve] [0s] clauses:2'149 literals:6'365 vars:467 one_side_vars:167 simple_definition:70 singleton_clauses:0
[SAT presolve] [0.000161984s] clauses:2'149 literals:6'186 vars:467 one_side_vars:208 simple_definition:62 singleton_clauses:0
[SAT presolve] [0.000215695s] clauses:2'143 literals:6'182 vars:464 one_side_vars:208 simple_definition:56 singleton_clauses:0
  1.33e-04s  0.00e+00d  [DetectDuplicateConstraintsWithDifferentEnforcements] #without_enforcements=1 
  4.14e-03s  2.14e-03d  [Probe] #probed=1'316 #new_binary_clauses=1'384 
  3.79e-04s  5.19e-04d  [MaxClique] Merged 544 constraints with 1'214 literals into 531 constraints with 1'203 literals
  5.89e-04s  0.00e+00d  [DetectDominanceRelations] 
  2.16e-03s  0.00e+00d  [PresolveToFixPoint] #num_loops=1 #num_dual_strengthening=1 
  8.84e-04s  0.00e+00d  [ProcessAtMostOneAndLinear] 
  1.18e-04s  0.00e+00d  [DetectDuplicateConstraints] 
  6.41e-05s  0.00e+00d  [DetectDuplicateConstraintsWithDifferentEnforcements] #without_enforcements=1 
  4.85e-04s  5.54e-05d  [DetectDominatedLinearConstraints] #relevant_constraints=838 #num_inclusions=304 
  9.99e-05s  0.00e+00d  [DetectDifferentVariables] 
  5.50e-04s  7.44e-05d  [ProcessSetPPC] #relevant_constraints=3'096 #num_inclusions=93 
  2.10e-04s  3.30e-05d  [TransformClausesToExactlyOne] #num_amos=531 #num_clauses=1'670 #num_checked=1'670 
  4.62e-05s  0.00e+00d  [DetectEncodedComplexDomains] 
  2.82e-05s  0.00e+00d  [FindAlmostIdenticalLinearConstraints] 
  6.35e-04s  1.12e-03d  [FindBigAtMostOneAndLinearOverlap] 
  9.58e-04s  9.35e-04d  [FindBigVerticalLinearOverlap] #blocks=1 #saved_nz=31 
  1.28e-04s  2.82e-04d  [FindBigHorizontalLinearOverlap] #linears=482 
  2.41e-04s  2.62e-05d  [MergeClauses] #num_collisions=76 #num_merges=76 #num_saved_literals=220 
  6.08e-04s  0.00e+00d  [DetectDominanceRelations] 
  2.18e-03s  0.00e+00d  [PresolveToFixPoint] #num_loops=2 #num_dual_strengthening=1 
  6.00e-04s  0.00e+00d  [DetectDominanceRelations] 
  2.13e-03s  0.00e+00d  [PresolveToFixPoint] #num_loops=1 #num_dual_strengthening=1 
  1.53e-04s  0.00e+00d  [DetectDuplicateColumns] 
  6.95e-05s  0.00e+00d  [DetectDuplicateConstraints] 
[Symmetry] Graph for symmetry has 4'343 nodes and 13'478 arcs.
[Symmetry] Symmetry computation done. time: 0.000616971 dtime: 0.00129817
[SAT presolve] num removable Booleans: 90 / 494
[SAT presolve] num trivial clauses: 0
[SAT presolve] [0s] clauses:2'133 literals:6'163 vars:464 one_side_vars:208 simple_definition:57 singleton_clauses:0
[SAT presolve] [0.000159912s] clauses:2'133 literals:6'163 vars:464 one_side_vars:208 simple_definition:57 singleton_clauses:0
[SAT presolve] [0.000206311s] clauses:2'133 literals:6'163 vars:464 one_side_vars:208 simple_definition:57 singleton_clauses:0
  1.41e-04s  0.00e+00d  [DetectDuplicateConstraintsWithDifferentEnforcements] 
  4.05e-03s  2.13e-03d  [Probe] #probed=1'316 #new_binary_clauses=1'392 
  3.65e-04s  5.22e-04d  [MaxClique] Merged 531 constraints with 1'199 literals into 530 constraints with 1'198 literals
  6.13e-04s  0.00e+00d  [DetectDominanceRelations] 
  2.30e-03s  0.00e+00d  [PresolveToFixPoint] #num_loops=1 #num_dual_strengthening=1 
  8.93e-04s  0.00e+00d  [ProcessAtMostOneAndLinear] 
  1.13e-04s  0.00e+00d  [DetectDuplicateConstraints] 
  6.81e-05s  0.00e+00d  [DetectDuplicateConstraintsWithDifferentEnforcements] 
  4.91e-04s  5.47e-05d  [DetectDominatedLinearConstraints] #relevant_constraints=839 #num_inclusions=304 
  1.05e-04s  0.00e+00d  [DetectDifferentVariables] 
  5.70e-04s  7.40e-05d  [ProcessSetPPC] #relevant_constraints=3'102 #num_inclusions=89 
  2.29e-04s  3.30e-05d  [TransformClausesToExactlyOne] #num_amos=530 #num_clauses=1'676 #num_checked=1'676 
  4.12e-05s  0.00e+00d  [DetectEncodedComplexDomains] 
  3.64e-05s  0.00e+00d  [FindAlmostIdenticalLinearConstraints] 
  6.57e-04s  1.09e-03d  [FindBigAtMostOneAndLinearOverlap] 
  9.56e-04s  9.34e-04d  [FindBigVerticalLinearOverlap] #blocks=1 #saved_nz=30 
  1.41e-04s  2.82e-04d  [FindBigHorizontalLinearOverlap] #linears=483 
  2.45e-04s  2.62e-05d  [MergeClauses] #num_collisions=79 #num_merges=79 #num_saved_literals=226 
  6.20e-04s  0.00e+00d  [DetectDominanceRelations] 
  2.25e-03s  0.00e+00d  [PresolveToFixPoint] #num_loops=2 #num_dual_strengthening=1 
  1.50e-05s  0.00e+00d  [MergeNoOverlap] 
  1.29e-05s  0.00e+00d  [MergeNoOverlap2D] 

Presolve summary:
  - 35 affine relations were detected.
  - rule 'TODO dual: only one blocking constraint?' was applied 939 times.
  - rule 'TODO dual: tighten at most one' was applied 8 times.
  - rule 'TODO linear inclusion: superset is equality' was applied 313 times.
  - rule 'affine: new relation' was applied 35 times.
  - rule 'at_most_one: transformed into max clique' was applied 3 times.
  - rule 'bool_or: implications' was applied 71 times.
  - rule 'bool_or: only one literal' was applied 12 times.
  - rule 'bool_or: removed enforcement literal' was applied 557 times.
  - rule 'deductions: 861 stored' was applied 1 time.
  - rule 'duplicate: merged rhs of linear constraint' was applied 4 times.
  - rule 'duplicate: removed constraint' was applied 5 times.
  - rule 'duplicate: removed enforced constraint' was applied 3 times.
  - rule 'enforcement: false literal' was applied 28 times.
  - rule 'enforcement: true literal' was applied 2 times.
  - rule 'exactly_one: removed literals' was applied 33 times.
  - rule 'exactly_one: satisfied' was applied 3 times.
  - rule 'exactly_one: singleton' was applied 3 times.
  - rule 'exactly_one: size two' was applied 30 times.
  - rule 'incompatible linear: add implication' was applied 144 times.
  - rule 'linear + amo: empty after processing' was applied 6 times.
  - rule 'linear + amo: extracted enforcement literal' was applied 56 times.
  - rule 'linear inclusion: redundant containing constraint' was applied 3 times.
  - rule 'linear inclusion: redundant included constraint' was applied 3 times.
  - rule 'linear inclusion: sparsify superset' was applied 1 time.
  - rule 'linear matrix: common vertical rectangle' was applied 10 times.
  - rule 'linear1: always true' was applied 3 times.
  - rule 'linear1: x in domain' was applied 26 times.
  - rule 'linear2: convert ax + by != cte to clauses' was applied 264 times.
  - rule 'linear2: convert implied ax + by == cte to clauses' was applied 114 times.
  - rule 'linear2: implied ax + by = cte has only one solution' was applied 11 times.
  - rule 'linear: always true' was applied 410 times.
  - rule 'linear: empty' was applied 7 times.
  - rule 'linear: enforcement literal in expression' was applied 6 times.
  - rule 'linear: extracted at most one (max)' was applied 1 time.
  - rule 'linear: fixed or dup variables' was applied 883 times.
  - rule 'linear: negative clause' was applied 1'295 times.
  - rule 'linear: negative reified and' was applied 78 times.
  - rule 'linear: never in domain' was applied 6 times.
  - rule 'linear: positive at most one' was applied 30 times.
  - rule 'linear: reduced variable domains' was applied 11 times.
  - rule 'linear: remapped using affine relations' was applied 29 times.
  - rule 'presolve: 66 unused variables removed.' was applied 1 time.
  - rule 'presolve: iteration' was applied 3 times.
  - rule 'probing: bool_or reduced to implication' was applied 28 times.
  - rule 'probing: simplified clauses' was applied 7 times.
  - rule 'setppc: bool_or in at_most_one' was applied 7 times.
  - rule 'setppc: removed dominated constraints' was applied 97 times.
  - rule 'variables: both boolean and its negation fix the same variable' was applied 3 times.
  - rule 'variables: detect half reified value encoding' was applied 6 times.

Presolved satisfaction model '': (model_fingerprint: 0x83817f36dd9c6d73)
#Variables: 501 (432 primary variables)
  - 494 Booleans in [0,1]
  - 7 in [0,2]
#kAtMostOne: 75 (#literals: 288)
#kBoolAnd: 265 (#enforced: 265) (#literals: 720)
#kBoolAndClauses: 79 (#enforced: 79 #multi: 79) (#literals: 384)
#kBoolOr: 1'518 (#literals: 4'639)
#kExactlyOne: 57 (#literals: 209)
#kLinearN: 840 (#enforced: 138) (#terms: 5'833)
[Symmetry] Graph for symmetry has 4'109 nodes and 13'440 arcs.
[Symmetry] Symmetry computation done. time: 0.000560681 dtime: 0.00127487

Preloading model.
#Model   0.07s var:501/501 constraints:2834/2834

Starting search at 0.07s with 4 workers.
3 full problem subsolvers: [default_lp, max_lp, no_lp]
1 first solution subsolver: [fj]
2 interleaved subsolvers: [feasibility_pump, rins/rens]
2 helper subsolvers: [neighborhood_helper, synchronization_agent]

#Model   7.23s var:500/501 constraints:2834/2834
#Model  17.81s var:499/501 constraints:2832/2834
#Model  26.52s var:498/501 constraints:2830/2834
#Model  56.43s var:497/501 constraints:2828/2834
#Model 192.87s var:496/501 constraints:2827/2834
#Model 231.74s var:495/501 constraints:2813/2834
#Model 256.49s var:494/501 constraints:2796/2834
#Model 566.27s var:493/501 constraints:2795/2834
#Model 642.01s var:492/501 constraints:2780/2834
#Model 1006.13s var:491/501 constraints:2760/2834
#Model 1087.53s var:488/501 constraints:2742/2834
#Model 1617.76s var:483/501 constraints:2719/2834
#Model 2001.40s var:482/501 constraints:2719/2834
#Model 2011.95s var:481/501 constraints:2697/2834
#Model 2289.44s var:480/501 constraints:2697/2834
#Model 2339.29s var:479/501 constraints:2696/2834

Task timing                   n [     min,      max]      avg      dev     time         n [     min,      max]      avg      dev    dtime
        'default_lp':         1 [  41.67m,   41.67m]   41.67m   0.00ns   41.67m         2 [  2.21ms,    1.05h]   31.47m   31.47m    1.05h
  'feasibility_pump':     14438 [ 19.54us, 116.27ms]   1.09ms 984.80us   15.78s     14436 [282.23us, 144.22ms] 294.09us   1.20ms    4.25s
                'fj':     14438 [ 71.73ms, 125.24ms]  95.10ms   6.57ms   22.89m     14438 [100.00ms, 100.11ms] 100.01ms  11.32us   24.07m
            'max_lp':         1 [  41.67m,   41.67m]   41.67m   0.00ns   41.67m         2 [106.33ms,    1.19h]   35.78m   35.78m    1.19h
             'no_lp':         1 [  41.67m,   41.67m]   41.67m   0.00ns   41.67m         2 [  2.09ms,    1.98h]   59.52m   59.52m    1.98h
         'rins/rens':     14439 [485.50us, 131.40ms]  76.87ms  32.56ms   18.50m     14435 [ 95.73us, 100.40ms]  65.84ms  39.19ms   15.84m

Search stats     Bools   Conflicts    Branches  Restarts  BacktrackToRoot   Backtrack     BoolPropag  IntegerPropag
  'default_lp':    494     384'871   8'230'450     2'109        1'272'539   1'980'698    101'076'097     96'941'122
      'max_lp':    494     289'440  10'109'894     1'418        1'560'416   2'221'086    122'001'373    120'963'213
       'no_lp':    494  22'940'146  30'770'843    78'512          523'750  23'279'259  1'890'362'482    464'221'482

SAT formula      Fixed  Equiv  Total  VarLeft  BinaryClauses  PermanentClauses  TemporaryClauses
  'default_lp':     22      5    494      467          3'168            67'355             5'483
      'max_lp':     22      5    494      467          3'150            66'265             5'786
       'no_lp':     22      5    494      467          3'166           174'648            11'025

SAT stats        ClassicMinim   LitRemoved  LitRemovedBinary   LitLearned  LitForgotten   Subsumed
  'default_lp':       343'528    5'466'072         2'552'059   11'705'052     7'705'865    138'208
      'max_lp':       247'338    3'421'356         1'837'246    7'122'253     4'599'320     85'079
       'no_lp':    20'590'353  365'202'002       160'487'123  557'859'036   443'678'435  6'104'857

Vivification       Clauses  Decisions  LitTrue  Subsumed  LitRemoved  DecisionReused  Conflicts
  'default_lp':  1'279'502  7'431'640        5    28'162     316'414         422'920      3'238
      'max_lp':  1'548'866  9'362'368        2    32'003     358'377         494'748      3'669
       'no_lp':    361'883  3'068'933        0    26'313     354'017          88'815      1'910

Clause deletion    at_true  l_and_not(l)  to_binary  sub_conflict  sub_extra  sub_decisions  sub_eager  sub_vivify  sub_probing  sub_inpro  blocked  eliminated   forgotten    promoted   conflicts
    'default_lp':    3'201             3         14       135'814      1'014          4'105      2'394      28'162        7'093     27'679        0           0     209'321     775'902     384'871
        'max_lp':    4'861            10         14        83'916        837          2'371      1'163      32'003        6'935     27'836        0           0     163'014     609'644     289'440
         'no_lp':   19'980             8         18     5'984'028     51'231        285'044    120'829      26'313       16'054    169'629        0           0  16'099'060  52'719'769  22'940'146

Lp stats         Component  Iterations  AddedCuts  OPTIMAL  DUAL_F.  DUAL_U.
  'default_lp':          1  42'404'372    166'142  551'003        0  249'454
      'max_lp':          1  19'944'213    187'481   87'436  254'123   51'007

Lp dimension        Final dimension of first component
  'default_lp':    297 rows, 366 columns, 4120 entries
      'max_lp':  1297 rows, 501 columns, 13181 entries

Lp debug         CutPropag  CutEqPropag   Adjust  Overflow        Bad  BadScaling
  'default_lp':          0          208  249'445         0  4'180'210           0
      'max_lp':          0          474   50'984         0  5'376'103           0

Lp pool          Constraints  Updates  Simplif  Merged  Shortened  Split  Strengthened        Cuts/Call
  'default_lp':        9'954   36'649        0       0      3'473      0             0  166'142/310'296
      'max_lp':       12'671   69'772        0       0      1'258      0         3'685  187'481/383'767

Lp Cut             max_lp  default_lp
          CG_FF:      177       1'791
           CG_K:       22         969
          CG_KL:        9         620
           CG_R:       85       1'943
          CG_RB:        8          80
         CG_RBP:        1          23
         Clique:      597           -
             IB:       35         162
       MIR_1_FF:    1'422       1'255
        MIR_1_K:       30         392
       MIR_1_KL:       45         847
        MIR_1_R:      605       1'241
       MIR_1_RB:        9           -
      MIR_1_RBP:        3           3
      MIR_1_RLT:   18'874           -
       MIR_2_FF:    1'634       1'243
        MIR_2_K:      286         385
       MIR_2_KL:      112         624
        MIR_2_R:    1'369       1'908
       MIR_2_RB:      107          25
      MIR_2_RBP:       15          23
       MIR_3_FF:      437         601
        MIR_3_K:       58         157
       MIR_3_KL:       17         217
        MIR_3_R:      455       1'324
       MIR_3_RB:       84          23
      MIR_3_RBP:       18          19
       MIR_4_FF:      136         257
        MIR_4_K:       18          76
       MIR_4_KL:        9         105
        MIR_4_R:      393       1'188
       MIR_4_RB:       66          22
      MIR_4_RBP:       18          27
       MIR_5_FF:       62          85
        MIR_5_K:       10          16
       MIR_5_KL:        2          14
        MIR_5_R:      341         875
       MIR_5_RB:       34          20
      MIR_5_RBP:       11          11
       MIR_6_FF:       31          35
        MIR_6_K:       12           6
       MIR_6_KL:        -           6
        MIR_6_R:      365         628
       MIR_6_RB:       22          15
      MIR_6_RBP:       13          12
   ZERO_HALF_FF:    1'555         931
    ZERO_HALF_K:      161         300
   ZERO_HALF_KL:       14         235
    ZERO_HALF_R:  157'575     145'295
   ZERO_HALF_RB:       16           5
  ZERO_HALF_RBP:      103         103

LNS stats       Improv/Calls  Closed  Difficulty  TimeLimit
  'rins/rens':   14436/14436     50%    7.79e-01       0.10

LS stats                                    Batches  Restarts/Perturbs    LinMoves    GenMoves  CompoundMoves  Bactracks  WeightUpdates  ScoreComputed
                             'fj_restart':      981                179  27'629'725           0              0          0     26'207'753     47'772'338
                    'fj_restart_compound':      944                154           0  11'561'526        375'812  5'592'555         33'854    177'935'306
                'fj_restart_compound_obj':      585                194           0   7'166'977        431'369  3'367'381         14'664    110'009'678
            'fj_restart_compound_perturb':      802                184           0  10'117'752        467'841  4'824'573         22'354    151'040'440
        'fj_restart_compound_perturb_obj':      640                186           0   7'899'219        433'992  3'732'202         16'635    120'527'117
                       'fj_restart_decay':      504                154  18'121'488           0              0          0        766'109      8'815'908
              'fj_restart_decay_compound':    1'201                211           0  16'767'692      2'551'844  7'107'310         15'678    231'082'693
          'fj_restart_decay_compound_obj':      643                168           0   8'608'670      1'325'442  3'641'258          8'538    123'540'572
      'fj_restart_decay_compound_perturb':    1'399                195           0  19'561'911      3'003'844  8'278'500         18'108    269'230'563
  'fj_restart_decay_compound_perturb_obj':      654                194           0   8'689'633      1'326'139  3'681'224          8'728    125'369'697
                   'fj_restart_decay_obj':    1'066                186  38'410'863           0              0          0      1'619'543     18'658'824
               'fj_restart_decay_perturb':    1'071                179  38'556'692           0              0          0      1'629'459     18'776'482
           'fj_restart_decay_perturb_obj':      721                171  25'946'862           0              0          0      1'095'236     12'612'461
                         'fj_restart_obj':      954                197  25'231'510           0              0          0     26'507'519     48'412'069
                     'fj_restart_perturb':      540                168  14'455'589           0              0          0     14'564'834     26'465'853
                 'fj_restart_perturb_obj':    1'733                198  47'309'020           0              0          0     49'412'120     86'931'329

Solution repositories    Added  Queried  Synchro
    'alternative_path':      0        0        0
      'best_solutions':      0        0        0
   'fj solution hints':  2'910        0    2'910
        'lp solutions':  3'287   14'439    3'229
                'pump':      0        0

Improving bounds shared    Num  Sym
            'default_lp':    8    0
                'max_lp':   12    0
                 'no_lp':    2    0

Clauses shared    #Exported  #Imported  #BinaryRead  #BinaryTotal
   'default_lp':      8'116    105'459          797           797
       'max_lp':      8'979    104'256          788           797
        'no_lp':     99'039     17'035          796           797

LRAT_status: NA
CpSolverResponse summary:
status: UNKNOWN
objective: NA
best_bound: NA
integers: 366
booleans: 494
conflicts: 22940146
branches: 30770843
propagations: 1890362482
integer_propagations: 464221482
restarts: 78512
lp_iterations: 0
walltime: 2500.27
usertime: 2500.27
deterministic_time: 17611.3
gap_integral: 0

{
  "board_size": 22,
  "parity_proved": 0,
  "target": 34,
  "child_id": 658,
  "child_count": 2640,
  "partition": "unknown_pair_x_diag_plus_twos_x_diag_minus_twos",
  "build_seconds": 0.05240488052368164,
  "workers": 4,
  "requested_seed": 2026072758,
  "effective_seed": 2026072758,
  "main_diagonal_pair": [
    2,
    3
  ],
  "pair_index": 40,
  "diag_plus_twos": 17,
  "diag_minus_twos": 16,
  "pair_excess": 0,
  "residual_certificate_slack": 112,
  "analytic_minimum_line_defect": 0,
  "analytic_defect_details": {
    "row_costs": {
      "12": 6,
      "13": 3,
      "14": 0,
      "15": 0,
      "16": 0,
      "17": 0
    },
    "column_costs": {
      "12": 6,
      "13": 3,
      "14": 0,
      "15": 0,
      "16": 0,
      "17": 0
    },
    "plus_cost": 0,
    "minus_cost": 0,
    "row_column_minimum": 0
  },
  "maximal_line_constraints": 2455,
  "analytic_infeasible": false,
  "allowed_points": 242,
  "status": "UNKNOWN",
  "proof_method": "cp_sat_all_lines_with_certificate_profile_cuts",
  "elapsed_seconds": 2500.268369436264,
  "branches": 30770843,
  "conflicts": 22940146
}
